# Solution for model GasLib-40
# Objective value = 51.1087250245712
loadshed[innode_1] 0
loadshed[innode_2] 0
loadshed[innode_3] 0
loadshed[innode_4] 0
loadshed[innode_5] 0
loadshed[innode_6] 0
loadshed[innode_7] 0
loadshed[innode_8] 0
loadshed[source_1] -1.0244159930888852e-01
loadshed[source_2] 5.7742796882410241e-02
loadshed[source_3] 3.6798702573143882e-01
loadshed[sink_1] 0.535749733167017
loadshed[sink_2] 0
loadshed[sink_3] 0
loadshed[sink_4] 0
loadshed[sink_5] 0
loadshed[sink_6] 0
loadshed[sink_7] 0
loadshed[sink_8] 0
loadshed[sink_9] 0
loadshed[sink_10] 0
loadshed[sink_11] 0
loadshed[sink_12] 1
loadshed[sink_13] 0
loadshed[sink_14] 0
loadshed[sink_15] 0
loadshed[sink_16] 0
loadshed[sink_17] 0
loadshed[sink_18] 0
loadshed[sink_19] 0
loadshed[sink_20] 0
loadshed[sink_21] 1
loadshed[sink_22] 0
loadshed[sink_23] 0
loadshed[sink_24] 5.8936975878128572e-01
loadshed[sink_25] 0
loadshed[sink_26] 0
loadshed[sink_27] 0
loadshed[sink_28] 0
loadshed[sink_29] 0
flow[source_1,sink_3] 1.7428529866851977e+02
flow[innode_1,sink_16] 1.6354166666666970e+01
flow[innode_6,sink_13] 1.4564060005391191e+01
flow[sink_13,sink_14] -1.7901066612754768e+00
flow[sink_14,sink_10] -18.1442733279423
flow[sink_25,sink_26] 0
flow[sink_26,sink_9] 7.3009092905497752e+01
flow[sink_9,sink_18] 5.6654926238831081e+01
flow[sink_26,sink_4] -8.9363259572164438e+01
flow[sink_4,sink_20] -1.0286503278844472e+02
flow[sink_18,sink_6] 4.0300759572164409e+01
flow[sink_25,innode_8] -1.4157696533518339e+02
flow[sink_6,sink_7] 0
flow[sink_6,sink_22] 2.3946592905497745e+01
flow[sink_7,sink_24] 6.7155154032643889e+00
flow[sink_22,sink_1] 7.5924262388310764e+00
flow[sink_24,sink_21] 0
flow[sink_21,sink_12] 0
flow[sink_7,sink_5] -2.3069682069931059e+01
flow[sink_5,sink_17] -3.9423848736597726e+01
flow[sink_17,sink_4] 2.8523934503863266e+00
flow[sink_17,sink_8] -5.8630408853650721e+01
flow[sink_3,sink_23] 16.3541666666697
flow[sink_8,sink_20] -7.4984575520317392e+01
flow[sink_25,sink_20] 1.9420377497542881e+02
flow[sink_25,sink_15] -8.3545036312304347e+01
flow[sink_15,sink_29] -5.6500595285071391e+01
flow[sink_29,sink_28] 1.6354166666667879e+01
flow[sink_29,sink_2] 5.9752774360566335e+01
flow[sink_2,sink_15] 4.3398607693899670e+01
flow[sink_29,innode_7] -1.4896170297897174e+02
flow[innode_4,sink_19] 3.7930995629968464e+01
flow[sink_19,innode_3] 6.7206773327942557e+01
flow[innode_4,innode_5] 6.1984111031307890e+01
flow[sink_27,innode_5] -6.1984111031307890e+01
flow[sink_27,sink_19] 4.5629944364641226e+01
flow[sink_10,sink_11] 3.2708333333333641e+01
flow[sink_10,innode_2] 0
flow[sink_10,innode_3] -6.7206773327942557e+01
flow[innode_6,sink_25] -1.4564060005391191e+01
flow[sink_11,innode_1] 1.6354166666666970e+01
flow[sink_19,innode_2] 0
flow[source_3,innode_4] 9.9915106661276354e+01
flow[source_2,innode_7] 1.4896170297897174e+02
flow[sink_3,innode_8] 1.4157696533518339e+02
pressure[innode_1] 7.5597952732044433e+01
pressure[innode_2] 7.5749654039647979e+01
pressure[innode_3] 7.9327746929109026e+01
pressure[innode_4] 81.01325
pressure[innode_5] 8.0970614060000372e+01
pressure[innode_6] 7.4968541069020588e+01
pressure[innode_7] 81.01325
pressure[innode_8] 8.0430680825948471e+01
pressure[source_1] 81.01325
pressure[source_2] 81.01325
pressure[source_3] 81.01325
pressure[sink_1] 1.0132500000000004e+00
pressure[sink_2] 7.5515502792464332e+01
pressure[sink_3] 8.0430680825948471e+01
pressure[sink_4] 2.1124297818609431e+01
pressure[sink_5] 1.8296515123693460e+01
pressure[sink_6] 2.2665447087392421e+00
pressure[sink_7] 8.7020147559893974e+00
pressure[sink_8] 2.3445584534911426e+01
pressure[sink_9] 5.3926390724880067e+00
pressure[sink_10] 7.5749654039647979e+01
pressure[sink_11] 7.5597952732044433e+01
pressure[sink_12] 1.01325
pressure[sink_13] 74.8882518400914
pressure[sink_14] 7.4891455388445110e+01
pressure[sink_15] 7.5373815903242814e+01
pressure[sink_16] 7.4576302897226753e+01
pressure[sink_17] 2.1233306890806531e+01
pressure[sink_18] 3.3426949804461152e+00
pressure[sink_19] 7.9476568718302261e+01
pressure[sink_20] 2.8670954920268066e+01
pressure[sink_21] 1.01325
pressure[sink_22] 1.5071051081869982e+00
pressure[sink_23] 8.0265962814288685e+01
pressure[sink_24] 1.01325
pressure[sink_25] 7.4968541069020588e+01
pressure[sink_26] 9.7624217141638230e+00
pressure[sink_27] 8.0456260472762509e+01
pressure[sink_28] 76.7338257284963
pressure[sink_29] 7.7029108002113475e+01
interdiction[source_1,sink_3] 0
interdiction[innode_1,sink_16] 0
interdiction[innode_6,sink_13] 0
interdiction[sink_13,sink_14] 0
interdiction[sink_14,sink_10] 0
interdiction[sink_25,sink_26] 1
interdiction[sink_26,sink_9] 0
interdiction[sink_9,sink_18] 0
interdiction[sink_26,sink_4] 0
interdiction[sink_4,sink_20] 0
interdiction[sink_18,sink_6] 0
interdiction[sink_25,innode_8] 0
interdiction[sink_6,sink_7] 1
interdiction[sink_6,sink_22] 0
interdiction[sink_7,sink_24] 0
interdiction[sink_22,sink_1] 0
interdiction[sink_24,sink_21] 0
interdiction[sink_21,sink_12] 0
interdiction[sink_7,sink_5] 0
interdiction[sink_5,sink_17] 0
interdiction[sink_17,sink_4] 0
interdiction[sink_17,sink_8] 0
interdiction[sink_3,sink_23] 0
interdiction[sink_8,sink_20] 0
interdiction[sink_25,sink_20] 0
interdiction[sink_25,sink_15] 0
interdiction[sink_15,sink_29] 0
interdiction[sink_29,sink_28] 0
interdiction[sink_29,sink_2] 0
interdiction[sink_2,sink_15] 0
interdiction[sink_29,innode_7] 0
interdiction[innode_4,sink_19] 0
interdiction[sink_19,innode_3] 0
interdiction[innode_4,innode_5] 0
interdiction[sink_27,innode_5] 0
interdiction[sink_27,sink_19] 0
interdiction[sink_10,sink_11] 0
interdiction[sink_10,innode_2] 0
interdiction[sink_10,innode_3] 0
interdiction[innode_6,sink_25] 0
interdiction[sink_11,innode_1] 0
interdiction[sink_19,innode_2] 1
interdiction[source_3,innode_4] 0
interdiction[source_2,innode_7] 0
interdiction[sink_3,innode_8] 0
WCcheckFlow[source_1,sink_3] 39
WCcheckFlow[innode_1,sink_16] 1
WCcheckFlow[innode_6,sink_13] 13
WCcheckFlow[sink_13,sink_14] 12
WCcheckFlow[sink_14,sink_10] 11
WCcheckFlow[sink_25,sink_26] 0
WCcheckFlow[sink_26,sink_9] 5
WCcheckFlow[sink_9,sink_18] 4
WCcheckFlow[sink_26,sink_4] -6
WCcheckFlow[sink_4,sink_20] -14
WCcheckFlow[sink_18,sink_6] 3
WCcheckFlow[sink_25,innode_8] -36
WCcheckFlow[sink_6,sink_7] 0
WCcheckFlow[sink_6,sink_22] 2
WCcheckFlow[sink_7,sink_24] 3
WCcheckFlow[sink_22,sink_1] 1
WCcheckFlow[sink_24,sink_21] 2
WCcheckFlow[sink_21,sink_12] 1
WCcheckFlow[sink_7,sink_5] -4
WCcheckFlow[sink_5,sink_17] -5
WCcheckFlow[sink_17,sink_4] -7
WCcheckFlow[sink_17,sink_8] 1
WCcheckFlow[sink_3,sink_23] 1
WCcheckFlow[sink_8,sink_20] 0
WCcheckFlow[sink_25,sink_20] 15
WCcheckFlow[sink_25,sink_15] 6
WCcheckFlow[sink_15,sink_29] 5
WCcheckFlow[sink_29,sink_28] 1
WCcheckFlow[sink_29,sink_2] 1
WCcheckFlow[sink_2,sink_15] 0
WCcheckFlow[sink_29,innode_7] 2
WCcheckFlow[innode_4,sink_19] -4
WCcheckFlow[sink_19,innode_3] -5
WCcheckFlow[innode_4,innode_5] 2
WCcheckFlow[sink_27,innode_5] -1
WCcheckFlow[sink_27,sink_19] 0
WCcheckFlow[sink_10,sink_11] 3
WCcheckFlow[sink_10,innode_2] 1
WCcheckFlow[sink_10,innode_3] 6
WCcheckFlow[innode_6,sink_25] -14
WCcheckFlow[sink_11,innode_1] 2
WCcheckFlow[sink_19,innode_2] 0
WCcheckFlow[source_3,innode_4] -1
WCcheckFlow[source_2,innode_7] -1
WCcheckFlow[sink_3,innode_8] 37
